NAME: P-n45-k5-C15-V2
TYPE: SoftCluVRP
DIMENSION:  45 
VEHICLES:  2 
GVRP_SETS:  15 
CAPACITY:  150 
EDGE_WEIGHT_TYPE: EUC_2D
NODE_COORD_SECTION 
1 30.000000 40.000000
2 37.000000 52.000000
3 49.000000 49.000000
4 52.000000 64.000000
5 20.000000 26.000000
6 40.000000 30.000000
7 21.000000 47.000000
8 17.000000 63.000000
9 31.000000 62.000000
10 52.000000 33.000000
11 51.000000 21.000000
12 42.000000 41.000000
13 31.000000 32.000000
14 5.000000 25.000000
15 12.000000 42.000000
16 36.000000 16.000000
17 52.000000 41.000000
18 27.000000 23.000000
19 17.000000 33.000000
20 13.000000 13.000000
21 57.000000 58.000000
22 62.000000 42.000000
23 42.000000 57.000000
24 16.000000 57.000000
25 8.000000 52.000000
26 7.000000 38.000000
27 27.000000 68.000000
28 30.000000 48.000000
29 43.000000 67.000000
30 58.000000 48.000000
31 58.000000 27.000000
32 37.000000 69.000000
33 38.000000 46.000000
34 46.000000 10.000000
35 61.000000 33.000000
36 62.000000 63.000000
37 63.000000 69.000000
38 32.000000 22.000000
39 45.000000 35.000000
40 59.000000 15.000000
41 5.000000 6.000000
42 10.000000 17.000000
43 21.000000 10.000000
44 5.000000 64.000000
45 30.000000 15.000000
GVRP_SET_SECTION 
 1 37  36 -1
 2  41  20 -1
 3  44  8  25 -1
 4  40  11  31 -1
 5  33  2  3  12  23  28 -1
 6  45  16  38  43 -1
 7  26  15 -1
 8  22  17  30  35 -1
 9  32  9  27  29 -1
 10  7  24 -1
 11  6  10  13  39 -1
 12  5  18  19 -1
 13  34 -1
 14  14  42 -1
 15  21  4 -1
 DEMAND_SECTION
 1 11 
 2 8 
 3 13 
 4 12 
 5 15 
 6 12 
 7 24 
 8 13 
 9 13 
 10 15 
 11 19 
 12 17 
 13 23 
 14 25 
 15 22 
EOF
